50
2300
4262 108
4264 107
4262 109
4261 109
4259 109
4260 108
4265 109
4263 109
4263 110
4261 107
4257 108
4264 108
4260 109
4260 110
4265 108
4265 110
4262 110
4263 109
4264 109
4264 109
4264 109
4264 109
4263 110
4264 109
4259 108
4265 109
4262 109
4261 108
4261 109
4259 108
4262 109
4262 109
4262 110
4265 108
4263 109
4262 109
4263 109
4264 109
4263 108
4265 109
4264 108
4257 110
4265 109
4262 109
4265 110
4264 108
4265 108
4264 109
4262 110
4263 109